data/MCDM/NO_CORR/GEN_FROM_60/17_ITEMS_1000_GEN/K5017W03.KNP.mps
NAME          BLANK   
ROWS
 N  OBJROW
 L  R0000000
COLUMNS
    C0000000  OBJROW     -134.         R0000000  601.        
    C0000001  OBJROW     -258.         R0000000  76.         
    C0000002  OBJROW     -777.         R0000000  382.        
    C0000003  OBJROW     -259.         R0000000  647.        
    C0000004  OBJROW     -375.         R0000000  806.        
    C0000005  OBJROW     -28.          R0000000  182.        
    C0000006  OBJROW     -154.         R0000000  174.        
    C0000007  OBJROW     -528.         R0000000  941.        
    C0000008  OBJROW     -544.         R0000000  931.        
    C0000009  OBJROW     -650.         R0000000  3.          
    C0000010  OBJROW     -331.         R0000000  395.        
    C0000011  OBJROW     -847.         R0000000  28.         
    C0000012  OBJROW     -98.          R0000000  718.        
    C0000013  OBJROW     -315.         R0000000  956.        
    C0000014  OBJROW     -308.         R0000000  759.        
    C0000015  OBJROW     -837.         R0000000  461.        
    C0000016  OBJROW     -926.         R0000000  974.        
RHS
    RHS       R0000000  13865.      
BOUNDS
 BV BOUND     C0000000  1.          
 BV BOUND     C0000001  1.          
 BV BOUND     C0000002  1.          
 BV BOUND     C0000003  1.          
 BV BOUND     C0000004  1.          
 BV BOUND     C0000005  1.          
 BV BOUND     C0000006  1.          
 BV BOUND     C0000007  1.          
 BV BOUND     C0000008  1.          
 BV BOUND     C0000009  1.          
 BV BOUND     C0000010  1.          
 BV BOUND     C0000011  1.          
 BV BOUND     C0000012  1.          
 BV BOUND     C0000013  1.          
 BV BOUND     C0000014  1.          
 BV BOUND     C0000015  1.          
 BV BOUND     C0000016  1.          
ENDATA
