data/MCDM/NO_CORR/GEN_FROM_60/17_ITEMS_1000_GEN/K5017W03.KNP.txt
N 17
M 18
LC 17
LC 18
LC 19
LC 20
LC 21
LC 22
LC 23
LC 24
LC 25
LC 26
LC 27
LC 28
LC 29
LC 30
LC 31
LC 32
LC 33
LR 1
LR 2
LR 3
LR 4
LR 5
LR 6
LR 7
LR 8
LR 9
LR 10
LR 11
LR 12
LR 13
LR 14
LR 15
LR 16
LR 17
LR 18
LO -134
LO -258
LO -777
LO -259
LO -375
LO -28
LO -154
LO -528
LO -544
LO -650
LO -331
LO -847
LO -98
LO -315
LO -308
LO -837
LO -926
OS 1
IC 296
IC 176
IC 296
IC 33
IC 263
IC 254
IC 79
IC 2
IC 50
IC 544
IC 190
IC 476
IC 631
IC 320
IC 164
IC 34
IC 537
IB 2173
